10J3M/DAT/10J3MULA-7.dat
10 3
49.7294 2473.0132
39.4083 1553.0141
43.3893 1882.6314
29.2023 852.7743
28.5029 812.4153
49.8971 2489.7206
37.7732 1426.8146
13.4592 181.1501
23.2091 538.6623
24.382 594.4819
4268.2259