10J3M/SOL/10J3MULA-7.sol
solution status: optimal solution found
objective value:                     112.984265998625
x#1#1                               0.833302856481498 	(obj:0)
x#1#2                               0.166697143518502 	(obj:0)
x#2#3                                               1 	(obj:0)
x#3#2                                               1 	(obj:0)
x#4#1                                               1 	(obj:0)
x#5#1                               0.438918607931654 	(obj:0)
x#5#3                               0.561081392068346 	(obj:0)
x#6#1                               0.328128523250831 	(obj:0)
x#6#3                               0.671871436584019 	(obj:0)
x#7#2                                               1 	(obj:0)
x#8#1                                               1 	(obj:0)
x#9#2                                               1 	(obj:0)
x#10#2                             0.0132440763569909 	(obj:0)
x#10#3                              0.986755923643009 	(obj:0)
z                                    112.984265998625 	(obj:1)
